\ Model UAVstrike
\ LP format - for model browsing. Use MPS format to capture full model detail.
Minimize
  0.1 C162 + 0.1 C163 + 0.1 C164 + 0.1 C165 + 0.1 C166 + 0.1 C167 + C168
Subject To
 R0: C36 + C39 + C42 + C45 + C48 + C51 + C54 + C57 + C60 + C72 + C78 + C84
   + C90 + C96 + C102 + C108 + C114 + C120 = 1
 R1: C9 + C12 + C15 + C18 + C21 + C24 + C27 + C30 + C33 + C75 + C81 + C87
   + C93 + C99 + C105 + C111 + C117 + C123 = 1
 R2: C38 + C41 + C44 + C47 + C50 + C53 + C56 + C59 + C62 + C74 + C80 + C86
   + C92 + C98 + C104 + C110 + C116 + C122 = 1
 R3: C11 + C14 + C17 + C20 + C23 + C26 + C29 + C32 + C35 + C77 + C83 + C89
   + C95 + C101 + C107 + C113 + C119 + C125 = 1
 R4: C0 + C1 + C2 + C3 + C4 + C5 + C6 + C7 + C8 + C37 + C40 + C43 + C46
   + C49 + C52 + C55 + C58 + C61 + C73 + C79 + C85 + C91 + C97 + C103
   + C109 + C115 + C121 = 1
 R5: C10 + C13 + C16 + C19 + C22 + C25 + C28 + C31 + C34 + C63 + C64 + C65
   + C66 + C67 + C68 + C69 + C70 + C71 + C76 + C82 + C88 + C94 + C100
   + C106 + C112 + C118 + C124 = 1
 R6: C36 + C39 + C42 + C45 + C48 + C51 + C54 + C57 + C60 + C72 + C78 + C84
   + C90 + C96 + C102 + C108 + C114 + C120 <= 1
 R7: C9 + C12 + C15 + C18 + C21 + C24 + C27 + C30 + C33 + C75 + C81 + C87
   + C93 + C99 + C105 + C111 + C117 + C123 <= 1
 R8: C38 + C41 + C44 + C47 + C50 + C53 + C56 + C59 + C62 + C74 + C80 + C86
   + C92 + C98 + C104 + C110 + C116 + C122 <= 1
 R9: C11 + C14 + C17 + C20 + C23 + C26 + C29 + C32 + C35 + C77 + C83 + C89
   + C95 + C101 + C107 + C113 + C119 + C125 <= 1
 R10: C0 + C1 + C2 + C3 + C4 + C5 + C6 + C7 + C8 + C37 + C40 + C43 + C46
   + C49 + C52 + C55 + C58 + C61 + C73 + C79 + C85 + C91 + C97 + C103
   + C109 + C115 + C121 <= 1
 R11: C10 + C13 + C16 + C19 + C22 + C25 + C28 + C31 + C34 + C63 + C64 + C65
   + C66 + C67 + C68 + C69 + C70 + C71 + C76 + C82 + C88 + C94 + C100
   + C106 + C112 + C118 + C124 <= 1
 R12: C36 + C37 + C38 + C72 + C73 + C74 <= 1
 R13: C9 + C10 + C11 + C75 + C76 + C77 <= 1
 R14: C39 + C40 + C41 + C78 + C79 + C80 <= 1
 R15: C12 + C13 + C14 + C81 + C82 + C83 <= 1
 R16: C42 + C43 + C44 + C84 + C85 + C86 <= 1
 R17: C15 + C16 + C17 + C87 + C88 + C89 <= 1
 R18: C45 + C46 + C47 + C90 + C91 + C92 <= 1
 R19: C18 + C19 + C20 + C93 + C94 + C95 <= 1
 R20: C48 + C49 + C50 + C96 + C97 + C98 <= 1
 R21: C21 + C22 + C23 + C99 + C100 + C101 <= 1
 R22: C51 + C52 + C53 + C102 + C103 + C104 <= 1
 R23: C24 + C25 + C26 + C105 + C106 + C107 <= 1
 R24: C54 + C55 + C56 + C108 + C109 + C110 <= 1
 R25: C27 + C28 + C29 + C111 + C112 + C113 <= 1
 R26: C57 + C58 + C59 + C114 + C115 + C116 <= 1
 R27: C30 + C31 + C32 + C117 + C118 + C119 <= 1
 R28: C60 + C61 + C62 + C120 + C121 + C122 <= 1
 R29: C33 + C34 + C35 + C123 + C124 + C125 <= 1
 R30: C126 + C135 + C144 <= 1
 R31: C127 + C136 + C145 <= 1
 R32: C128 + C137 + C146 <= 1
 R33: C129 + C138 + C147 <= 1
 R34: C130 + C139 + C148 <= 1
 R35: C131 + C140 + C149 <= 1
 R36: C132 + C141 + C150 <= 1
 R37: C133 + C142 + C151 <= 1
 R38: C134 + C143 + C152 <= 1
 R39: C36 + C37 + C38 + C126 <= 1
 R40: C9 + C10 + C11 + C135 <= 1
 R41: C39 + C40 + C41 + C127 <= 1
 R42: C12 + C13 + C14 + C136 <= 1
 R43: C42 + C43 + C44 + C128 <= 1
 R44: C15 + C16 + C17 + C137 <= 1
 R45: C45 + C46 + C47 + C129 <= 1
 R46: C18 + C19 + C20 + C138 <= 1
 R47: C48 + C49 + C50 + C130 <= 1
 R48: C21 + C22 + C23 + C139 <= 1
 R49: C51 + C52 + C53 + C131 <= 1
 R50: C24 + C25 + C26 + C140 <= 1
 R51: C54 + C55 + C56 + C132 <= 1
 R52: C27 + C28 + C29 + C141 <= 1
 R53: C57 + C58 + C59 + C133 <= 1
 R54: C30 + C31 + C32 + C142 <= 1
 R55: C60 + C61 + C62 + C134 <= 1
 R56: C33 + C34 + C35 + C143 <= 1
 R57: C0 + C10 + C37 + C63 + C73 + C76 <= 1
 R58: C1 + C13 + C40 + C64 + C79 + C82 <= 1
 R59: C2 + C16 + C43 + C65 + C85 + C88 <= 1
 R60: C3 + C19 + C46 + C66 + C91 + C94 <= 1
 R61: C4 + C22 + C49 + C67 + C97 + C100 <= 1
 R62: C5 + C25 + C52 + C68 + C103 + C106 <= 1
 R63: C6 + C28 + C55 + C69 + C109 + C112 <= 1
 R64: C7 + C31 + C58 + C70 + C115 + C118 <= 1
 R65: C8 + C34 + C61 + C71 + C121 + C124 <= 1
 R66: C37 + C38 + C73 + C74 <= 1
 R67: C10 + C11 + C76 + C77 <= 1
 R68: C40 + C41 + C79 + C80 <= 1
 R69: C13 + C14 + C82 + C83 <= 1
 R70: C43 + C44 + C85 + C86 <= 1
 R71: C16 + C17 + C88 + C89 <= 1
 R72: C46 + C47 + C91 + C92 <= 1
 R73: C19 + C20 + C94 + C95 <= 1
 R74: C49 + C50 + C97 + C98 <= 1
 R75: C22 + C23 + C100 + C101 <= 1
 R76: C52 + C53 + C103 + C104 <= 1
 R77: C25 + C26 + C106 + C107 <= 1
 R78: C55 + C56 + C109 + C110 <= 1
 R79: C28 + C29 + C112 + C113 <= 1
 R80: C58 + C59 + C115 + C116 <= 1
 R81: C31 + C32 + C118 + C119 <= 1
 R82: C61 + C62 + C121 + C122 <= 1
 R83: C34 + C35 + C124 + C125 <= 1
 R84: - C9 - C10 - C11 + C38 + C74 - C126 <= 0
 R85: - C0 - C9 - C10 - C11 + C36 + C72 - C126 <= 0
 R86: - C12 - C13 - C14 + C41 + C80 - C127 <= 0
 R87: - C1 - C12 - C13 - C14 + C39 + C78 - C127 <= 0
 R88: - C15 - C16 - C17 + C44 + C86 - C128 <= 0
 R89: - C2 - C15 - C16 - C17 + C42 + C84 - C128 <= 0
 R90: - C18 - C19 - C20 + C47 + C92 - C129 <= 0
 R91: - C3 - C18 - C19 - C20 + C45 + C90 - C129 <= 0
 R92: - C21 - C22 - C23 + C50 + C98 - C130 <= 0
 R93: - C4 - C21 - C22 - C23 + C48 + C96 - C130 <= 0
 R94: - C24 - C25 - C26 + C53 + C104 - C131 <= 0
 R95: - C5 - C24 - C25 - C26 + C51 + C102 - C131 <= 0
 R96: - C27 - C28 - C29 + C56 + C110 - C132 <= 0
 R97: - C6 - C27 - C28 - C29 + C54 + C108 - C132 <= 0
 R98: - C30 - C31 - C32 + C59 + C116 - C133 <= 0
 R99: - C7 - C30 - C31 - C32 + C57 + C114 - C133 <= 0
 R100: - C33 - C34 - C35 + C62 + C122 - C134 <= 0
 R101: - C8 - C33 - C34 - C35 + C60 + C120 - C134 <= 0
 R102: C11 - C36 - C37 - C38 + C77 - C135 <= 0
 R103: C9 - C36 - C37 - C38 - C63 + C75 - C135 <= 0
 R104: C14 - C39 - C40 - C41 + C83 - C136 <= 0
 R105: C12 - C39 - C40 - C41 - C64 + C81 - C136 <= 0
 R106: C17 - C42 - C43 - C44 + C89 - C137 <= 0
 R107: C15 - C42 - C43 - C44 - C65 + C87 - C137 <= 0
 R108: C20 - C45 - C46 - C47 + C95 - C138 <= 0
 R109: C18 - C45 - C46 - C47 - C66 + C93 - C138 <= 0
 R110: C23 - C48 - C49 - C50 + C101 - C139 <= 0
 R111: C21 - C48 - C49 - C50 - C67 + C99 - C139 <= 0
 R112: C26 - C51 - C52 - C53 + C107 - C140 <= 0
 R113: C24 - C51 - C52 - C53 - C68 + C105 - C140 <= 0
 R114: C29 - C54 - C55 - C56 + C113 - C141 <= 0
 R115: C27 - C54 - C55 - C56 - C69 + C111 - C141 <= 0
 R116: C32 - C57 - C58 - C59 + C119 - C142 <= 0
 R117: C30 - C57 - C58 - C59 - C70 + C117 - C142 <= 0
 R118: C35 - C60 - C61 - C62 + C125 - C143 <= 0
 R119: C33 - C60 - C61 - C62 - C71 + C123 - C143 <= 0
 R120: C0 + C9 + C10 + C11 + C37 + C73 + C126 <= 1
 R121: C9 + C10 + C11 - C36 - C37 - C38 - C72 - C73 - C74 + C126 <= 0
 R122: C1 + C12 + C13 + C14 + C40 + C79 + C127 <= 1
 R123: C12 + C13 + C14 - C39 - C40 - C41 - C78 - C79 - C80 + C127 <= 0
 R124: C2 + C15 + C16 + C17 + C43 + C85 + C128 <= 1
 R125: C15 + C16 + C17 - C42 - C43 - C44 - C84 - C85 - C86 + C128 <= 0
 R126: C3 + C18 + C19 + C20 + C46 + C91 + C129 <= 1
 R127: C18 + C19 + C20 - C45 - C46 - C47 - C90 - C91 - C92 + C129 <= 0
 R128: C4 + C21 + C22 + C23 + C49 + C97 + C130 <= 1
 R129: C21 + C22 + C23 - C48 - C49 - C50 - C96 - C97 - C98 + C130 <= 0
 R130: C5 + C24 + C25 + C26 + C52 + C103 + C131 <= 1
 R131: C24 + C25 + C26 - C51 - C52 - C53 - C102 - C103 - C104 + C131 <= 0
 R132: C6 + C27 + C28 + C29 + C55 + C109 + C132 <= 1
 R133: C27 + C28 + C29 - C54 - C55 - C56 - C108 - C109 - C110 + C132 <= 0
 R134: C7 + C30 + C31 + C32 + C58 + C115 + C133 <= 1
 R135: C30 + C31 + C32 - C57 - C58 - C59 - C114 - C115 - C116 + C133 <= 0
 R136: C8 + C33 + C34 + C35 + C61 + C121 + C134 <= 1
 R137: C33 + C34 + C35 - C60 - C61 - C62 - C120 - C121 - C122 + C134 <= 0
 R138: C10 + C36 + C37 + C38 + C63 + C76 + C135 <= 1
 R139: - C9 - C10 - C11 + C36 + C37 + C38 - C75 - C76 - C77 + C135 <= 0
 R140: C13 + C39 + C40 + C41 + C64 + C82 + C136 <= 1
 R141: - C12 - C13 - C14 + C39 + C40 + C41 - C81 - C82 - C83 + C136 <= 0
 R142: C16 + C42 + C43 + C44 + C65 + C88 + C137 <= 1
 R143: - C15 - C16 - C17 + C42 + C43 + C44 - C87 - C88 - C89 + C137 <= 0
 R144: C19 + C45 + C46 + C47 + C66 + C94 + C138 <= 1
 R145: - C18 - C19 - C20 + C45 + C46 + C47 - C93 - C94 - C95 + C138 <= 0
 R146: C22 + C48 + C49 + C50 + C67 + C100 + C139 <= 1
 R147: - C21 - C22 - C23 + C48 + C49 + C50 - C99 - C100 - C101 + C139 <= 0
 R148: C25 + C51 + C52 + C53 + C68 + C106 + C140 <= 1
 R149: - C24 - C25 - C26 + C51 + C52 + C53 - C105 - C106 - C107 + C140
   <= 0
 R150: C28 + C54 + C55 + C56 + C69 + C112 + C141 <= 1
 R151: - C27 - C28 - C29 + C54 + C55 + C56 - C111 - C112 - C113 + C141
   <= 0
 R152: C31 + C57 + C58 + C59 + C70 + C118 + C142 <= 1
 R153: - C30 - C31 - C32 + C57 + C58 + C59 - C117 - C118 - C119 + C142
   <= 0
 R154: C34 + C60 + C61 + C62 + C71 + C124 + C143 <= 1
 R155: - C33 - C34 - C35 + C60 + C61 + C62 - C123 - C124 - C125 + C143
   <= 0
 R156: C72 + C73 + C74 + C75 + C76 + C77 + C144 = 1
 R157: C78 + C79 + C80 + C81 + C82 + C83 + C145 = 1
 R158: C84 + C85 + C86 + C87 + C88 + C89 + C146 = 1
 R159: C90 + C91 + C92 + C93 + C94 + C95 + C147 = 1
 R160: C96 + C97 + C98 + C99 + C100 + C101 + C148 = 1
 R161: C102 + C103 + C104 + C105 + C106 + C107 + C149 = 1
 R162: C108 + C109 + C110 + C111 + C112 + C113 + C150 = 1
 R163: C114 + C115 + C116 + C117 + C118 + C119 + C151 = 1
 R164: C120 + C121 + C122 + C123 + C124 + C125 + C152 = 1
 R165: C0 - C36 - C72 <= 0
 R166: C1 - C39 - C78 <= 0
 R167: C2 - C42 - C84 <= 0
 R168: C3 - C45 - C90 <= 0
 R169: C4 - C48 - C96 <= 0
 R170: C5 - C51 - C102 <= 0
 R171: C6 - C54 - C108 <= 0
 R172: C7 - C57 - C114 <= 0
 R173: C8 - C60 - C120 <= 0
 R174: - C9 + C63 - C75 <= 0
 R175: - C12 + C64 - C81 <= 0
 R176: - C15 + C65 - C87 <= 0
 R177: - C18 + C66 - C93 <= 0
 R178: - C21 + C67 - C99 <= 0
 R179: - C24 + C68 - C105 <= 0
 R180: - C27 + C69 - C111 <= 0
 R181: - C30 + C70 - C117 <= 0
 R182: - C33 + C71 - C123 <= 0
 R183: 900 C9 + 900 C36 + 900 C72 - C162 + C165 <= 1802
 R184: - 900 C9 - 900 C36 - 900 C72 - C162 + C165 >= -1798
 R185: 900 C9 + 900 C38 + 900 C74 - C164 + C165 <= 1802
 R186: - 900 C9 - 900 C38 - 900 C74 - C164 + C165 >= -1798
 R187: 900 C11 + 900 C36 + 900 C72 - C162 + C167 <= 1807
 R188: - 900 C11 - 900 C36 - 900 C72 - C162 + C167 >= -1793
 R189: 900 C11 + 900 C38 + 900 C74 - C164 + C167 <= 1807
 R190: - 900 C11 - 900 C38 - 900 C74 - C164 + C167 >= -1793
 R191: 900 C12 + 900 C39 + 900 C78 - C162 + C165 <= 1808
 R192: - 900 C12 - 900 C39 - 900 C78 - C162 + C165 >= -1792
 R193: 900 C12 + 900 C41 + 900 C80 - C164 + C165 <= 1808
 R194: - 900 C12 - 900 C41 - 900 C80 - C164 + C165 >= -1792
 R195: 900 C14 + 900 C39 + 900 C78 - C162 + C167 <= 1803
 R196: - 900 C14 - 900 C39 - 900 C78 - C162 + C167 >= -1797
 R197: 900 C14 + 900 C41 + 900 C80 - C164 + C167 <= 1803
 R198: - 900 C14 - 900 C41 - 900 C80 - C164 + C167 >= -1797
 R199: 900 C15 + 900 C42 + 900 C84 - C162 + C165 <= 1827
 R200: - 900 C15 - 900 C42 - 900 C84 - C162 + C165 >= -1773
 R201: 900 C15 + 900 C44 + 900 C86 - C164 + C165 <= 1827
 R202: - 900 C15 - 900 C44 - 900 C86 - C164 + C165 >= -1773
 R203: 900 C17 + 900 C42 + 900 C84 - C162 + C167 <= 1825
 R204: - 900 C17 - 900 C42 - 900 C84 - C162 + C167 >= -1775
 R205: 900 C17 + 900 C44 + 900 C86 - C164 + C167 <= 1825
 R206: - 900 C17 - 900 C44 - 900 C86 - C164 + C167 >= -1775
 R207: 900 C18 + 900 C45 + 900 C90 - C162 + C165 <= 1810
 R208: - 900 C18 - 900 C45 - 900 C90 - C162 + C165 >= -1790
 R209: 900 C18 + 900 C47 + 900 C92 - C164 + C165 <= 1810
 R210: - 900 C18 - 900 C47 - 900 C92 - C164 + C165 >= -1790
 R211: 900 C20 + 900 C45 + 900 C90 - C162 + C167 <= 1823
 R212: - 900 C20 - 900 C45 - 900 C90 - C162 + C167 >= -1777
 R213: 900 C20 + 900 C47 + 900 C92 - C164 + C167 <= 1823
 R214: - 900 C20 - 900 C47 - 900 C92 - C164 + C167 >= -1777
 R215: 900 C21 + 900 C48 + 900 C96 - C162 + C165 <= 1819
 R216: - 900 C21 - 900 C48 - 900 C96 - C162 + C165 >= -1781
 R217: 900 C21 + 900 C50 + 900 C98 - C164 + C165 <= 1819
 R218: - 900 C21 - 900 C50 - 900 C98 - C164 + C165 >= -1781
 R219: 900 C23 + 900 C48 + 900 C96 - C162 + C167 <= 1824
 R220: - 900 C23 - 900 C48 - 900 C96 - C162 + C167 >= -1776
 R221: 900 C23 + 900 C50 + 900 C98 - C164 + C167 <= 1824
 R222: - 900 C23 - 900 C50 - 900 C98 - C164 + C167 >= -1776
 R223: 900 C24 + 900 C51 + 900 C102 - C162 + C165 <= 1815
 R224: - 900 C24 - 900 C51 - 900 C102 - C162 + C165 >= -1785
 R225: 900 C24 + 900 C53 + 900 C104 - C164 + C165 <= 1815
 R226: - 900 C24 - 900 C53 - 900 C104 - C164 + C165 >= -1785
 R227: 900 C26 + 900 C51 + 900 C102 - C162 + C167 <= 1814
 R228: - 900 C26 - 900 C51 - 900 C102 - C162 + C167 >= -1786
 R229: 900 C26 + 900 C53 + 900 C104 - C164 + C167 <= 1814
 R230: - 900 C26 - 900 C53 - 900 C104 - C164 + C167 >= -1786
 R231: 900 C27 + 900 C54 + 900 C108 - C162 + C165 <= 1821
 R232: - 900 C27 - 900 C54 - 900 C108 - C162 + C165 >= -1779
 R233: 900 C27 + 900 C56 + 900 C110 - C164 + C165 <= 1821
 R234: - 900 C27 - 900 C56 - 900 C110 - C164 + C165 >= -1779
 R235: 900 C29 + 900 C54 + 900 C108 - C162 + C167 <= 1801
 R236: - 900 C29 - 900 C54 - 900 C108 - C162 + C167 >= -1799
 R237: 900 C29 + 900 C56 + 900 C110 - C164 + C167 <= 1801
 R238: - 900 C29 - 900 C56 - 900 C110 - C164 + C167 >= -1799
 R239: 900 C30 + 900 C57 + 900 C114 - C162 + C165 <= 1824
 R240: - 900 C30 - 900 C57 - 900 C114 - C162 + C165 >= -1776
 R241: 900 C30 + 900 C59 + 900 C116 - C164 + C165 <= 1824
 R242: - 900 C30 - 900 C59 - 900 C116 - C164 + C165 >= -1776
 R243: 900 C32 + 900 C57 + 900 C114 - C162 + C167 <= 1813
 R244: - 900 C32 - 900 C57 - 900 C114 - C162 + C167 >= -1787
 R245: 900 C32 + 900 C59 + 900 C116 - C164 + C167 <= 1813
 R246: - 900 C32 - 900 C59 - 900 C116 - C164 + C167 >= -1787
 R247: 900 C33 + 900 C60 + 900 C120 - C162 + C165 <= 1806
 R248: - 900 C33 - 900 C60 - 900 C120 - C162 + C165 >= -1794
 R249: 900 C33 + 900 C62 + 900 C122 - C164 + C165 <= 1806
 R250: - 900 C33 - 900 C62 - 900 C122 - C164 + C165 >= -1794
 R251: 900 C35 + 900 C60 + 900 C120 - C162 + C167 <= 1826
 R252: - 900 C35 - 900 C60 - 900 C120 - C162 + C167 >= -1774
 R253: 900 C35 + 900 C62 + 900 C122 - C164 + C167 <= 1826
 R254: - 900 C35 - 900 C62 - 900 C122 - C164 + C167 >= -1774
 R255: 900 C9 + 900 C36 + 900 C75 + C162 - C165 <= 1814
 R256: - 900 C9 - 900 C36 - 900 C75 + C162 - C165 >= -1786
 R257: 900 C11 + 900 C36 + 900 C77 + C162 - C167 <= 1814
 R258: - 900 C11 - 900 C36 - 900 C77 + C162 - C167 >= -1786
 R259: 900 C9 + 900 C38 + 900 C75 + C164 - C165 <= 1820
 R260: - 900 C9 - 900 C38 - 900 C75 + C164 - C165 >= -1780
 R261: 900 C11 + 900 C38 + 900 C77 + C164 - C167 <= 1820
 R262: - 900 C11 - 900 C38 - 900 C77 + C164 - C167 >= -1780
 R263: 900 C12 + 900 C39 + 900 C81 + C162 - C165 <= 1801
 R264: - 900 C12 - 900 C39 - 900 C81 + C162 - C165 >= -1799
 R265: 900 C14 + 900 C39 + 900 C83 + C162 - C167 <= 1801
 R266: - 900 C14 - 900 C39 - 900 C83 + C162 - C167 >= -1799
 R267: 900 C12 + 900 C41 + 900 C81 + C164 - C165 <= 1809
 R268: - 900 C12 - 900 C41 - 900 C81 + C164 - C165 >= -1791
 R269: 900 C14 + 900 C41 + 900 C83 + C164 - C167 <= 1809
 R270: - 900 C14 - 900 C41 - 900 C83 + C164 - C167 >= -1791
 R271: 900 C15 + 900 C42 + 900 C87 + C162 - C165 <= 1809
 R272: - 900 C15 - 900 C42 - 900 C87 + C162 - C165 >= -1791
 R273: 900 C17 + 900 C42 + 900 C89 + C162 - C167 <= 1809
 R274: - 900 C17 - 900 C42 - 900 C89 + C162 - C167 >= -1791
 R275: 900 C15 + 900 C44 + 900 C87 + C164 - C165 <= 1812
 R276: - 900 C15 - 900 C44 - 900 C87 + C164 - C165 >= -1788
 R277: 900 C17 + 900 C44 + 900 C89 + C164 - C167 <= 1812
 R278: - 900 C17 - 900 C44 - 900 C89 + C164 - C167 >= -1788
 R279: 900 C18 + 900 C45 + 900 C93 + C162 - C165 <= 1821
 R280: - 900 C18 - 900 C45 - 900 C93 + C162 - C165 >= -1779
 R281: 900 C20 + 900 C45 + 900 C95 + C162 - C167 <= 1821
 R282: - 900 C20 - 900 C45 - 900 C95 + C162 - C167 >= -1779
 R283: 900 C18 + 900 C47 + 900 C93 + C164 - C165 <= 1825
 R284: - 900 C18 - 900 C47 - 900 C93 + C164 - C165 >= -1775
 R285: 900 C20 + 900 C47 + 900 C95 + C164 - C167 <= 1825
 R286: - 900 C20 - 900 C47 - 900 C95 + C164 - C167 >= -1775
 R287: 900 C21 + 900 C48 + 900 C99 + C162 - C165 <= 1815
 R288: - 900 C21 - 900 C48 - 900 C99 + C162 - C165 >= -1785
 R289: 900 C23 + 900 C48 + 900 C101 + C162 - C167 <= 1815
 R290: - 900 C23 - 900 C48 - 900 C101 + C162 - C167 >= -1785
 R291: 900 C21 + 900 C50 + 900 C99 + C164 - C165 <= 1801
 R292: - 900 C21 - 900 C50 - 900 C99 + C164 - C165 >= -1799
 R293: 900 C23 + 900 C50 + 900 C101 + C164 - C167 <= 1801
 R294: - 900 C23 - 900 C50 - 900 C101 + C164 - C167 >= -1799
 R295: 900 C24 + 900 C51 + 900 C105 + C162 - C165 <= 1812
 R296: - 900 C24 - 900 C51 - 900 C105 + C162 - C165 >= -1788
 R297: 900 C26 + 900 C51 + 900 C107 + C162 - C167 <= 1812
 R298: - 900 C26 - 900 C51 - 900 C107 + C162 - C167 >= -1788
 R299: 900 C24 + 900 C53 + 900 C105 + C164 - C165 <= 1822
 R300: - 900 C24 - 900 C53 - 900 C105 + C164 - C165 >= -1778
 R301: 900 C26 + 900 C53 + 900 C107 + C164 - C167 <= 1822
 R302: - 900 C26 - 900 C53 - 900 C107 + C164 - C167 >= -1778
 R303: 900 C27 + 900 C54 + 900 C111 + C162 - C165 <= 1801
 R304: - 900 C27 - 900 C54 - 900 C111 + C162 - C165 >= -1799
 R305: 900 C29 + 900 C54 + 900 C113 + C162 - C167 <= 1801
 R306: - 900 C29 - 900 C54 - 900 C113 + C162 - C167 >= -1799
 R307: 900 C27 + 900 C56 + 900 C111 + C164 - C165 <= 1813
 R308: - 900 C27 - 900 C56 - 900 C111 + C164 - C165 >= -1787
 R309: 900 C29 + 900 C56 + 900 C113 + C164 - C167 <= 1813
 R310: - 900 C29 - 900 C56 - 900 C113 + C164 - C167 >= -1787
 R311: 900 C30 + 900 C57 + 900 C117 + C162 - C165 <= 1818
 R312: - 900 C30 - 900 C57 - 900 C117 + C162 - C165 >= -1782
 R313: 900 C32 + 900 C57 + 900 C119 + C162 - C167 <= 1818
 R314: - 900 C32 - 900 C57 - 900 C119 + C162 - C167 >= -1782
 R315: 900 C30 + 900 C59 + 900 C117 + C164 - C165 <= 1814
 R316: - 900 C30 - 900 C59 - 900 C117 + C164 - C165 >= -1786
 R317: 900 C32 + 900 C59 + 900 C119 + C164 - C167 <= 1814
 R318: - 900 C32 - 900 C59 - 900 C119 + C164 - C167 >= -1786
 R319: 900 C33 + 900 C60 + 900 C123 + C162 - C165 <= 1807
 R320: - 900 C33 - 900 C60 - 900 C123 + C162 - C165 >= -1793
 R321: 900 C35 + 900 C60 + 900 C125 + C162 - C167 <= 1807
 R322: - 900 C35 - 900 C60 - 900 C125 + C162 - C167 >= -1793
 R323: 900 C33 + 900 C62 + 900 C123 + C164 - C165 <= 1819
 R324: - 900 C33 - 900 C62 - 900 C123 + C164 - C165 >= -1781
 R325: 900 C35 + 900 C62 + 900 C125 + C164 - C167 <= 1819
 R326: - 900 C35 - 900 C62 - 900 C125 + C164 - C167 >= -1781
 R327: 900 C10 + 900 C36 + 900 C72 - C162 + C166 <= 1822
 R328: - 900 C10 - 900 C36 - 900 C72 - C162 + C166 >= -1778
 R329: 900 C10 + 900 C38 + 900 C74 - C164 + C166 <= 1822
 R330: - 900 C10 - 900 C38 - 900 C74 - C164 + C166 >= -1778
 R331: 900 C13 + 900 C39 + 900 C78 - C162 + C166 <= 1812
 R332: - 900 C13 - 900 C39 - 900 C78 - C162 + C166 >= -1788
 R333: 900 C13 + 900 C41 + 900 C80 - C164 + C166 <= 1812
 R334: - 900 C13 - 900 C41 - 900 C80 - C164 + C166 >= -1788
 R335: 900 C16 + 900 C42 + 900 C84 - C162 + C166 <= 1809
 R336: - 900 C16 - 900 C42 - 900 C84 - C162 + C166 >= -1791
 R337: 900 C16 + 900 C44 + 900 C86 - C164 + C166 <= 1809
 R338: - 900 C16 - 900 C44 - 900 C86 - C164 + C166 >= -1791
 R339: 900 C19 + 900 C45 + 900 C90 - C162 + C166 <= 1807
 R340: - 900 C19 - 900 C45 - 900 C90 - C162 + C166 >= -1793
 R341: 900 C19 + 900 C47 + 900 C92 - C164 + C166 <= 1807
 R342: - 900 C19 - 900 C47 - 900 C92 - C164 + C166 >= -1793
 R343: 900 C22 + 900 C48 + 900 C96 - C162 + C166 <= 1805
 R344: - 900 C22 - 900 C48 - 900 C96 - C162 + C166 >= -1795
 R345: 900 C22 + 900 C50 + 900 C98 - C164 + C166 <= 1805
 R346: - 900 C22 - 900 C50 - 900 C98 - C164 + C166 >= -1795
 R347: 900 C25 + 900 C51 + 900 C102 - C162 + C166 <= 1816
 R348: - 900 C25 - 900 C51 - 900 C102 - C162 + C166 >= -1784
 R349: 900 C25 + 900 C53 + 900 C104 - C164 + C166 <= 1816
 R350: - 900 C25 - 900 C53 - 900 C104 - C164 + C166 >= -1784
 R351: 900 C28 + 900 C54 + 900 C108 - C162 + C166 <= 1803
 R352: - 900 C28 - 900 C54 - 900 C108 - C162 + C166 >= -1797
 R353: 900 C28 + 900 C56 + 900 C110 - C164 + C166 <= 1803
 R354: - 900 C28 - 900 C56 - 900 C110 - C164 + C166 >= -1797
 R355: 900 C31 + 900 C57 + 900 C114 - C162 + C166 <= 1819
 R356: - 900 C31 - 900 C57 - 900 C114 - C162 + C166 >= -1781
 R357: 900 C31 + 900 C59 + 900 C116 - C164 + C166 <= 1819
 R358: - 900 C31 - 900 C59 - 900 C116 - C164 + C166 >= -1781
 R359: 900 C34 + 900 C60 + 900 C120 - C162 + C166 <= 1809
 R360: - 900 C34 - 900 C60 - 900 C120 - C162 + C166 >= -1791
 R361: 900 C34 + 900 C62 + 900 C122 - C164 + C166 <= 1809
 R362: - 900 C34 - 900 C62 - 900 C122 - C164 + C166 >= -1791
 R363: 900 C9 + 900 C37 + 900 C75 + C163 - C165 <= 1812
 R364: - 900 C9 - 900 C37 - 900 C75 + C163 - C165 >= -1788
 R365: 900 C11 + 900 C37 + 900 C77 + C163 - C167 <= 1812
 R366: - 900 C11 - 900 C37 - 900 C77 + C163 - C167 >= -1788
 R367: 900 C12 + 900 C40 + 900 C81 + C163 - C165 <= 1814
 R368: - 900 C12 - 900 C40 - 900 C81 + C163 - C165 >= -1786
 R369: 900 C14 + 900 C40 + 900 C83 + C163 - C167 <= 1814
 R370: - 900 C14 - 900 C40 - 900 C83 + C163 - C167 >= -1786
 R371: 900 C15 + 900 C43 + 900 C87 + C163 - C165 <= 1816
 R372: - 900 C15 - 900 C43 - 900 C87 + C163 - C165 >= -1784
 R373: 900 C17 + 900 C43 + 900 C89 + C163 - C167 <= 1816
 R374: - 900 C17 - 900 C43 - 900 C89 + C163 - C167 >= -1784
 R375: 900 C18 + 900 C46 + 900 C93 + C163 - C165 <= 1819
 R376: - 900 C18 - 900 C46 - 900 C93 + C163 - C165 >= -1781
 R377: 900 C20 + 900 C46 + 900 C95 + C163 - C167 <= 1819
 R378: - 900 C20 - 900 C46 - 900 C95 + C163 - C167 >= -1781
 R379: 900 C21 + 900 C49 + 900 C99 + C163 - C165 <= 1812
 R380: - 900 C21 - 900 C49 - 900 C99 + C163 - C165 >= -1788
 R381: 900 C23 + 900 C49 + 900 C101 + C163 - C167 <= 1812
 R382: - 900 C23 - 900 C49 - 900 C101 + C163 - C167 >= -1788
 R383: 900 C24 + 900 C52 + 900 C105 + C163 - C165 <= 1828
 R384: - 900 C24 - 900 C52 - 900 C105 + C163 - C165 >= -1772
 R385: 900 C26 + 900 C52 + 900 C107 + C163 - C167 <= 1828
 R386: - 900 C26 - 900 C52 - 900 C107 + C163 - C167 >= -1772
 R387: 900 C27 + 900 C55 + 900 C111 + C163 - C165 <= 1827
 R388: - 900 C27 - 900 C55 - 900 C111 + C163 - C165 >= -1773
 R389: 900 C29 + 900 C55 + 900 C113 + C163 - C167 <= 1827
 R390: - 900 C29 - 900 C55 - 900 C113 + C163 - C167 >= -1773
 R391: 900 C30 + 900 C58 + 900 C117 + C163 - C165 <= 1830
 R392: - 900 C30 - 900 C58 - 900 C117 + C163 - C165 >= -1770
 R393: 900 C32 + 900 C58 + 900 C119 + C163 - C167 <= 1830
 R394: - 900 C32 - 900 C58 - 900 C119 + C163 - C167 >= -1770
 R395: 900 C33 + 900 C61 + 900 C123 + C163 - C165 <= 1819
 R396: - 900 C33 - 900 C61 - 900 C123 + C163 - C165 >= -1781
 R397: 900 C35 + 900 C61 + 900 C125 + C163 - C167 <= 1819
 R398: - 900 C35 - 900 C61 - 900 C125 + C163 - C167 >= -1781
 R399: 100 C72 - C153 + C162 <= 128
 R400: - 100 C72 - C153 + C162 >= -72
 R401: 100 C73 - C153 + C163 <= 106
 R402: - 100 C73 - C153 + C163 >= -94
 R403: 100 C74 - C153 + C164 <= 121
 R404: - 100 C74 - C153 + C164 >= -79
 R405: 100 C78 - C154 + C162 <= 116
 R406: - 100 C78 - C154 + C162 >= -84
 R407: 100 C79 - C154 + C163 <= 104
 R408: - 100 C79 - C154 + C163 >= -96
 R409: 100 C80 - C154 + C164 <= 116
 R410: - 100 C80 - C154 + C164 >= -84
 R411: 100 C84 - C155 + C162 <= 119
 R412: - 100 C84 - C155 + C162 >= -81
 R413: 100 C85 - C155 + C163 <= 123
 R414: - 100 C85 - C155 + C163 >= -77
 R415: 100 C86 - C155 + C164 <= 129
 R416: - 100 C86 - C155 + C164 >= -71
 R417: 100 C90 - C156 + C162 <= 120
 R418: - 100 C90 - C156 + C162 >= -80
 R419: 100 C91 - C156 + C163 <= 124
 R420: - 100 C91 - C156 + C163 >= -76
 R421: 100 C92 - C156 + C164 <= 130
 R422: - 100 C92 - C156 + C164 >= -70
 R423: 100 C96 - C157 + C162 <= 122
 R424: - 100 C96 - C157 + C162 >= -78
 R425: 100 C97 - C157 + C163 <= 111
 R426: - 100 C97 - C157 + C163 >= -89
 R427: 100 C98 - C157 + C164 <= 124
 R428: - 100 C98 - C157 + C164 >= -76
 R429: 100 C102 - C158 + C162 <= 109
 R430: - 100 C102 - C158 + C162 >= -91
 R431: 100 C103 - C158 + C163 <= 130
 R432: - 100 C103 - C158 + C163 >= -70
 R433: 100 C104 - C158 + C164 <= 122
 R434: - 100 C104 - C158 + C164 >= -78
 R435: 100 C108 - C159 + C162 <= 114
 R436: - 100 C108 - C159 + C162 >= -86
 R437: 100 C109 - C159 + C163 <= 126
 R438: - 100 C109 - C159 + C163 >= -74
 R439: 100 C110 - C159 + C164 <= 106
 R440: - 100 C110 - C159 + C164 >= -94
 R441: 100 C114 - C160 + C162 <= 122
 R442: - 100 C114 - C160 + C162 >= -78
 R443: 100 C115 - C160 + C163 <= 129
 R444: - 100 C115 - C160 + C163 >= -71
 R445: 100 C116 - C160 + C164 <= 117
 R446: - 100 C116 - C160 + C164 >= -83
 R447: 100 C120 - C161 + C162 <= 110
 R448: - 100 C120 - C161 + C162 >= -90
 R449: 100 C121 - C161 + C163 <= 128
 R450: - 100 C121 - C161 + C163 >= -72
 R451: 100 C122 - C161 + C164 <= 108
 R452: - 100 C122 - C161 + C164 >= -92
 R453: 100 C75 - C153 + C165 <= 105
 R454: - 100 C75 - C153 + C165 >= -95
 R455: 100 C76 - C153 + C166 <= 101
 R456: - 100 C76 - C153 + C166 >= -99
 R457: 100 C77 - C153 + C167 <= 105
 R458: - 100 C77 - C153 + C167 >= -95
 R459: 100 C81 - C154 + C165 <= 117
 R460: - 100 C81 - C154 + C165 >= -83
 R461: 100 C82 - C154 + C166 <= 130
 R462: - 100 C82 - C154 + C166 >= -70
 R463: 100 C83 - C154 + C167 <= 130
 R464: - 100 C83 - C154 + C167 >= -70
 R465: 100 C87 - C155 + C165 <= 103
 R466: - 100 C87 - C155 + C165 >= -97
 R467: 100 C88 - C155 + C166 <= 121
 R468: - 100 C88 - C155 + C166 >= -79
 R469: 100 C89 - C155 + C167 <= 124
 R470: - 100 C89 - C155 + C167 >= -76
 R471: 100 C93 - C156 + C165 <= 123
 R472: - 100 C93 - C156 + C165 >= -77
 R473: 100 C94 - C156 + C166 <= 119
 R474: - 100 C94 - C156 + C166 >= -81
 R475: 100 C95 - C156 + C167 <= 101
 R476: - 100 C95 - C156 + C167 >= -99
 R477: 100 C99 - C157 + C165 <= 122
 R478: - 100 C99 - C157 + C165 >= -78
 R479: 100 C100 - C157 + C166 <= 118
 R480: - 100 C100 - C157 + C166 >= -82
 R481: 100 C101 - C157 + C167 <= 122
 R482: - 100 C101 - C157 + C167 >= -78
 R483: 100 C105 - C158 + C165 <= 114
 R484: - 100 C105 - C158 + C165 >= -86
 R485: 100 C106 - C158 + C166 <= 105
 R486: - 100 C106 - C158 + C166 >= -95
 R487: 100 C107 - C158 + C167 <= 118
 R488: - 100 C107 - C158 + C167 >= -82
 R489: 100 C111 - C159 + C165 <= 126
 R490: - 100 C111 - C159 + C165 >= -74
 R491: 100 C112 - C159 + C166 <= 105
 R492: - 100 C112 - C159 + C166 >= -95
 R493: 100 C113 - C159 + C167 <= 123
 R494: - 100 C113 - C159 + C167 >= -77
 R495: 100 C117 - C160 + C165 <= 128
 R496: - 100 C117 - C160 + C165 >= -72
 R497: 100 C118 - C160 + C166 <= 119
 R498: - 100 C118 - C160 + C166 >= -81
 R499: 100 C119 - C160 + C167 <= 121
 R500: - 100 C119 - C160 + C167 >= -79
 R501: 100 C123 - C161 + C165 <= 119
 R502: - 100 C123 - C161 + C165 >= -81
 R503: 100 C124 - C161 + C166 <= 128
 R504: - 100 C124 - C161 + C166 >= -72
 R505: 100 C125 - C161 + C167 <= 126
 R506: - 100 C125 - C161 + C167 >= -74
 R507: C162 - C163 <= -1
 R508: C163 - C164 <= -1
 R509: C165 - C166 <= -1
 R510: C166 - C167 <= -1
 R511: 2 C9 + 22 C10 + 7 C11 + 14 C36 + 12 C37 + 20 C38 + 28 C72 + 6 C73
   + 21 C74 + 5 C75 + C76 + 5 C77 <= 100
 R512: 8 C12 + 12 C13 + 3 C14 + C39 + 14 C40 + 9 C41 + 16 C78 + 4 C79
   + 16 C80 + 17 C81 + 30 C82 + 30 C83 <= 100
 R513: 27 C15 + 9 C16 + 25 C17 + 9 C42 + 16 C43 + 12 C44 + 19 C84 + 23 C85
   + 29 C86 + 3 C87 + 21 C88 + 24 C89 <= 100
 R514: 10 C18 + 7 C19 + 23 C20 + 21 C45 + 19 C46 + 25 C47 + 20 C90 + 24 C91
   + 30 C92 + 23 C93 + 19 C94 + C95 <= 100
 R515: 19 C21 + 5 C22 + 24 C23 + 15 C48 + 12 C49 + C50 + 22 C96 + 11 C97
   + 24 C98 + 22 C99 + 18 C100 + 22 C101 <= 100
 R516: 15 C24 + 16 C25 + 14 C26 + 12 C51 + 28 C52 + 22 C53 + 9 C102
   + 30 C103 + 22 C104 + 14 C105 + 5 C106 + 18 C107 <= 100
 R517: 21 C27 + 3 C28 + C29 + C54 + 27 C55 + 13 C56 + 14 C108 + 26 C109
   + 6 C110 + 26 C111 + 5 C112 + 23 C113 <= 100
 R518: 24 C30 + 19 C31 + 13 C32 + 18 C57 + 30 C58 + 14 C59 + 22 C114
   + 29 C115 + 17 C116 + 28 C117 + 19 C118 + 21 C119 <= 100
 R519: 6 C33 + 9 C34 + 26 C35 + 7 C60 + 19 C61 + 19 C62 + 10 C120 + 28 C121
   + 8 C122 + 19 C123 + 28 C124 + 26 C125 <= 100
Bounds
Binaries
 C0 C1 C2 C3 C4 C5 C6 C7 C8 C9 C10 C11 C12 C13 C14 C15 C16 C17 C18 C19 C20
 C21 C22 C23 C24 C25 C26 C27 C28 C29 C30 C31 C32 C33 C34 C35 C36 C37 C38
 C39 C40 C41 C42 C43 C44 C45 C46 C47 C48 C49 C50 C51 C52 C53 C54 C55 C56
 C57 C58 C59 C60 C61 C62 C63 C64 C65 C66 C67 C68 C69 C70 C71 C72 C73 C74
 C75 C76 C77 C78 C79 C80 C81 C82 C83 C84 C85 C86 C87 C88 C89 C90 C91 C92
 C93 C94 C95 C96 C97 C98 C99 C100 C101 C102 C103 C104 C105 C106 C107 C108
 C109 C110 C111 C112 C113 C114 C115 C116 C117 C118 C119 C120 C121 C122 C123
 C124 C125 C126 C127 C128 C129 C130 C131 C132 C133 C134 C135 C136 C137 C138
 C139 C140 C141 C142 C143 C144 C145 C146 C147 C148 C149 C150 C151 C152
End
